Version identifier: 22.1.1.0 | 2022-11-28 | 9160aff4d
CPXPARAM_ClockType                               1
CPXPARAM_Read_DataCheck                          1
CPXPARAM_Threads                                 1
CPXPARAM_TimeLimit                               7200
CPXPARAM_MIP_Tolerances_AbsMIPGap                0
CPXPARAM_MIP_Tolerances_MIPGap                   0
CPXPARAM_MIP_Tolerances_Integrality              0
Found incumbent of value 0.000000 after 0.01 sec. (8.38 ticks)
Tried aggregator 9 times.
MIP Presolve eliminated 38202 rows and 31777 columns.
MIP Presolve modified 22 coefficients.
Aggregator did 7526 substitutions.
Reduced MIP has 7748 rows, 5607 columns, and 30014 nonzeros.
Reduced MIP has 5607 binaries, 0 generals, 0 SOSs, and 0 indicators.
Presolve time = 0.18 sec. (139.27 ticks)
Probing time = 0.02 sec. (5.16 ticks)
Tried aggregator 1 time.
Detecting symmetries...
MIP Presolve eliminated 22 rows and 24 columns.
MIP Presolve modified 2 coefficients.
Reduced MIP has 7726 rows, 5562 columns, and 29923 nonzeros.
Reduced MIP has 5562 binaries, 0 generals, 0 SOSs, and 0 indicators.
Presolve time = 0.04 sec. (27.50 ticks)
Probing time = 0.01 sec. (3.80 ticks)
Clique table members: 5270.
MIP emphasis: balance optimality and feasibility.
MIP search method: dynamic search.
Parallel mode: none, using 1 thread.
Root relaxation solution time = 0.01 sec. (10.22 ticks)

        Nodes                                         Cuts/
   Node  Left     Objective  IInf  Best Integer    Best Bound    ItCnt     Gap

*     0+    0                            0.0000     1130.0000              --- 
      0     0     1130.0000   601        0.0000     1130.0000        0     --- 
*     0+    0                          508.0000     1130.0000           122.44%
      0     0     1127.0000   308      508.0000    Cuts: 1695     1148  121.85%
      0     0     1118.0000   183      508.0000     Cuts: 178     1354  120.08%
      0     0     1118.0000    92      508.0000      Cuts: 61     1395  120.08%
      0     0     1118.0000   301      508.0000  ZeroHalf: 45     1476  120.08%
*     0+    0                         1105.0000     1118.0000             1.18%
*     0+    0                         1118.0000     1118.0000             0.00%
      0     0        cutoff           1118.0000     1118.0000     1476    0.00%
Elapsed time = 0.69 sec. (521.79 ticks, tree = 0.01 MB, solutions = 4)

GUB cover cuts applied:  164
Clique cuts applied:  299
Cover cuts applied:  1024
Implied bound cuts applied:  1
Zero-half cuts applied:  80
Gomory fractional cuts applied:  205

Root node processing (before b&c):
  Real time             =    0.70 sec. (524.03 ticks)
Sequential b&c:
  Real time             =    0.00 sec. (0.00 ticks)
                          ------------
Total (root+branch&cut) =    0.70 sec. (524.03 ticks)
Solution is feasible.

---------------------
@@@ MIP_optimal
>>> Benchmark mc2024_track1_015.cnf k 2 OPT 1118 TimeCost 29.284438848495483 TimeSolve 0.7300784587860107 TimeRead 0.013659954071044922 TimeTrans 28.540700435638428
